c Reduced graph for p31 generated by Cyril Grelier
p edge 30 99
e 1 3
e 1 4
e 1 6
e 1 12
e 1 14
e 1 19
e 1 25
e 1 28
e 2 11
e 2 14
e 2 18
e 2 30
e 3 8
e 4 6
e 4 9
e 4 12
e 4 14
e 4 19
e 4 25
e 4 28
e 5 16
e 5 22
e 5 23
e 5 27
e 6 8
e 6 12
e 6 13
e 6 14
e 6 19
e 6 20
e 6 21
e 6 25
e 6 27
e 6 28
e 6 29
e 7 9
e 7 17
e 7 22
e 7 24
e 7 25
e 7 29
e 7 30
e 8 13
e 8 20
e 8 21
e 8 27
e 8 29
e 9 17
e 9 24
e 9 29
e 9 30
e 10 18
e 10 19
e 10 24
e 10 26
e 11 14
e 11 30
e 12 14
e 12 19
e 12 25
e 12 28
e 13 15
e 13 16
e 13 20
e 13 21
e 13 27
e 13 29
e 14 19
e 14 25
e 14 28
e 14 30
e 15 16
e 17 24
e 17 29
e 17 30
e 18 19
e 18 24
e 18 26
e 19 24
e 19 25
e 19 26
e 19 28
e 20 21
e 20 26
e 20 27
e 20 29
e 21 27
e 21 29
e 22 23
e 22 25
e 22 27
e 23 27
e 23 28
e 24 26
e 24 29
e 24 30
e 25 28
e 27 29
e 29 30
